Route #1: 48 47 36 60 20 37 5
Route #2: 21 61 28 62 2
Route #3: 17 51 16 63 1 33 6
Route #4: 22 64 42 43 41 56 23 49
Route #5: 24 18 50 25 55 31 39
Route #6: 3 44 32 9 40
Route #7: 12 58 10 38 11
Route #8: 7 35 14 59 53 26
Route #9: 30 45 29 15 57 54 19 8
Route #10: 34 46 52 13 27 4
Cost 827